
Gurobi 10.0.1 (linux64) logging started Sun Nov 26 16:05:18 2023

Set parameter LogFile to value "ArtificialInstance/ExperimentV2/S2T5K3/AdSp/gurobiDoSp61.txt"
Gurobi Optimizer version 10.0.1 build v10.0.1rc0 (linux64)

CPU model: AMD EPYC 7H12 64-Core Processor, instruction set [SSE2|AVX|AVX2]
Thread count: 128 physical cores, 128 logical processors, using up to 32 threads

Academic license 656792 - for non-commercial use only - registered to b.___@student.vu.nl
Optimize a model with 16350 rows, 15138 columns and 58682 nonzeros
Model fingerprint: 0x27098c30
Variable types: 0 continuous, 15138 integer (15138 binary)
Coefficient statistics:
  Matrix range     [1e+00, 1e+00]
  Objective range  [2e+00, 2e+01]
  Bounds range     [1e+00, 1e+00]
  RHS range        [1e+00, 1e+00]
Presolve removed 12888 rows and 12007 columns
Presolve time: 0.35s
Presolved: 3462 rows, 3131 columns, 12310 nonzeros
Variable types: 0 continuous, 3131 integer (3131 binary)

Root relaxation: objective 9.193994e+01, 618 iterations, 0.01 seconds (0.01 work units)

    Nodes    |    Current Node    |     Objective Bounds      |     Work
 Expl Unexpl |  Obj  Depth IntInf | Incumbent    BestBd   Gap | It/Node Time

*    0     0               0      91.9399437   91.93994  0.00%     -    0s

Explored 1 nodes (618 simplex iterations) in 0.40 seconds (0.27 work units)
Thread count was 32 (of 128 available processors)

Solution count 1: 91.9399 

Optimal solution found (tolerance 1.00e-04)
Best objective 9.193994366736e+01, best bound 9.193994366736e+01, gap 0.0000%
